\ Model VRP
\ LP format - for model browsing. Use MPS format to capture full model detail.
Minimize
  0 x[0,0,0] + 0 x[0,0,1] + 164 x[0,1,0] + 164 x[0,1,1] + 220.8 x[0,2,0]
   + 220.8 x[0,2,1] + 247.2 x[0,3,0] + 247.2 x[0,3,1] + 482.2 x[0,4,0]
   + 482.2 x[0,4,1] + 473.7 x[0,5,0] + 473.7 x[0,5,1] + 435.1 x[0,6,0]
   + 435.1 x[0,6,1] + 363.4 x[0,7,0] + 363.4 x[0,7,1] + 332.6 x[0,8,0]
   + 332.6 x[0,8,1] + 0 x[1,1,0] + 0 x[1,1,1] + 293.6 x[1,4,0]
   + 293.6 x[1,4,1] + 293.6 x[1,5,0] + 293.6 x[1,5,1] + 293.6 x[1,6,0]
   + 293.6 x[1,6,1] + 293.6 x[1,7,0] + 293.6 x[1,7,1] + 293.6 x[1,8,0]
   + 293.6 x[1,8,1] + 0 x[2,2,0] + 0 x[2,2,1] + 86.6 x[2,4,0]
   + 86.6 x[2,4,1] + 86.6 x[2,5,0] + 86.6 x[2,5,1] + 86.6 x[2,6,0]
   + 86.6 x[2,6,1] + 86.6 x[2,7,0] + 86.6 x[2,7,1] + 86.6 x[2,8,0]
   + 86.6 x[2,8,1] + 0 x[3,3,0] + 0 x[3,3,1] + 330 x[3,4,0] + 330 x[3,4,1]
   + 330 x[3,5,0] + 330 x[3,5,1] + 330 x[3,6,0] + 330 x[3,6,1]
   + 330 x[3,7,0] + 330 x[3,7,1] + 330 x[3,8,0] + 330 x[3,8,1] + 0 x[4,4,0]
   + 0 x[4,4,1] + 16.8 x[4,5,0] + 16.8 x[4,5,1] + 47.2 x[4,6,0]
   + 47.2 x[4,6,1] + 189.8 x[4,7,0] + 189.8 x[4,7,1] + 256.8 x[4,8,0]
   + 256.8 x[4,8,1] + 16.8 x[5,4,0] + 16.8 x[5,4,1] + 0 x[5,5,0]
   + 0 x[5,5,1] + 42.4 x[5,6,0] + 42.4 x[5,6,1] + 193.6 x[5,7,0]
   + 193.6 x[5,7,1] + 240.9 x[5,8,0] + 240.9 x[5,8,1] + 47.2 x[6,4,0]
   + 47.2 x[6,4,1] + 42.4 x[6,5,0] + 42.4 x[6,5,1] + 0 x[6,6,0]
   + 0 x[6,6,1] + 154.8 x[6,7,0] + 154.8 x[6,7,1] + 226.1 x[6,8,0]
   + 226.1 x[6,8,1] + 189.8 x[7,4,0] + 189.8 x[7,4,1] + 193.6 x[7,5,0]
   + 193.6 x[7,5,1] + 154.8 x[7,6,0] + 154.8 x[7,6,1] + 0 x[7,7,0]
   + 0 x[7,7,1] + 298.7 x[7,8,0] + 298.7 x[7,8,1] + 256.8 x[8,4,0]
   + 256.8 x[8,4,1] + 240.9 x[8,5,0] + 240.9 x[8,5,1] + 226.1 x[8,6,0]
   + 226.1 x[8,6,1] + 298.7 x[8,7,0] + 298.7 x[8,7,1] + 0 x[8,8,0]
   + 0 x[8,8,1]
Subject To
 Launch_site[0]: x[0,1,0] + x[0,2,0] + x[0,3,0] - x_k[0] = 0
 Launch_site[1]: x[0,1,1] + x[0,2,1] + x[0,3,1] - x_k[1] = 0
 Landing_site[0]: x[4,0,0] + x[5,0,0] + x[6,0,0] + x[7,0,0] + x[8,0,0]
   - x_k[0] = 0
 Landing_site[1]: x[4,0,1] + x[5,0,1] + x[6,0,1] + x[7,0,1] + x[8,0,1]
   - x_k[1] = 0
 Visit_customer[4]: x[1,4,0] + x[1,4,1] + x[2,4,0] + x[2,4,1] + x[3,4,0]
   + x[3,4,1] = 1
 Visit_customer[5]: x[1,5,0] + x[1,5,1] + x[2,5,0] + x[2,5,1] + x[3,5,0]
   + x[3,5,1] = 1
 Visit_customer[6]: x[1,6,0] + x[1,6,1] + x[2,6,0] + x[2,6,1] + x[3,6,0]
   + x[3,6,1] = 1
 Visit_customer[7]: x[1,7,0] + x[1,7,1] + x[2,7,0] + x[2,7,1] + x[3,7,0]
   + x[3,7,1] = 1
 Visit_customer[8]: x[1,8,0] + x[1,8,1] + x[2,8,0] + x[2,8,1] + x[3,8,0]
   + x[3,8,1] = 1
 Leave_customer[0,0]: - x[0,1,0] - x[0,2,0] - x[0,3,0] - x[0,4,0]
   - x[0,5,0] - x[0,6,0] - x[0,7,0] - x[0,8,0] + x[1,0,0] + x[2,0,0]
   + x[3,0,0] + x[4,0,0] + x[5,0,0] + x[6,0,0] + x[7,0,0] + x[8,0,0] = 0
 Leave_customer[0,1]: - x[0,1,1] - x[0,2,1] - x[0,3,1] - x[0,4,1]
   - x[0,5,1] - x[0,6,1] - x[0,7,1] - x[0,8,1] + x[1,0,1] + x[2,0,1]
   + x[3,0,1] + x[4,0,1] + x[5,0,1] + x[6,0,1] + x[7,0,1] + x[8,0,1] = 0
 Leave_customer[1,0]: x[0,1,0] - x[1,0,0] - x[1,2,0] - x[1,3,0] - x[1,4,0]
   - x[1,5,0] - x[1,6,0] - x[1,7,0] - x[1,8,0] + x[2,1,0] + x[3,1,0]
   + x[4,1,0] + x[5,1,0] + x[6,1,0] + x[7,1,0] + x[8,1,0] = 0
 Leave_customer[1,1]: x[0,1,1] - x[1,0,1] - x[1,2,1] - x[1,3,1] - x[1,4,1]
   - x[1,5,1] - x[1,6,1] - x[1,7,1] - x[1,8,1] + x[2,1,1] + x[3,1,1]
   + x[4,1,1] + x[5,1,1] + x[6,1,1] + x[7,1,1] + x[8,1,1] = 0
 Leave_customer[2,0]: x[0,2,0] + x[1,2,0] - x[2,0,0] - x[2,1,0] - x[2,3,0]
   - x[2,4,0] - x[2,5,0] - x[2,6,0] - x[2,7,0] - x[2,8,0] + x[3,2,0]
   + x[4,2,0] + x[5,2,0] + x[6,2,0] + x[7,2,0] + x[8,2,0] = 0
 Leave_customer[2,1]: x[0,2,1] + x[1,2,1] - x[2,0,1] - x[2,1,1] - x[2,3,1]
   - x[2,4,1] - x[2,5,1] - x[2,6,1] - x[2,7,1] - x[2,8,1] + x[3,2,1]
   + x[4,2,1] + x[5,2,1] + x[6,2,1] + x[7,2,1] + x[8,2,1] = 0
 Leave_customer[3,0]: x[0,3,0] + x[1,3,0] + x[2,3,0] - x[3,0,0] - x[3,1,0]
   - x[3,2,0] - x[3,4,0] - x[3,5,0] - x[3,6,0] - x[3,7,0] - x[3,8,0]
   + x[4,3,0] + x[5,3,0] + x[6,3,0] + x[7,3,0] + x[8,3,0] = 0
 Leave_customer[3,1]: x[0,3,1] + x[1,3,1] + x[2,3,1] - x[3,0,1] - x[3,1,1]
   - x[3,2,1] - x[3,4,1] - x[3,5,1] - x[3,6,1] - x[3,7,1] - x[3,8,1]
   + x[4,3,1] + x[5,3,1] + x[6,3,1] + x[7,3,1] + x[8,3,1] = 0
 Leave_customer[4,0]: x[0,4,0] + x[1,4,0] + x[2,4,0] + x[3,4,0] - x[4,0,0]
   - x[4,1,0] - x[4,2,0] - x[4,3,0] - x[4,5,0] - x[4,6,0] - x[4,7,0]
   - x[4,8,0] + x[5,4,0] + x[6,4,0] + x[7,4,0] + x[8,4,0] = 0
 Leave_customer[4,1]: x[0,4,1] + x[1,4,1] + x[2,4,1] + x[3,4,1] - x[4,0,1]
   - x[4,1,1] - x[4,2,1] - x[4,3,1] - x[4,5,1] - x[4,6,1] - x[4,7,1]
   - x[4,8,1] + x[5,4,1] + x[6,4,1] + x[7,4,1] + x[8,4,1] = 0
 Leave_customer[5,0]: x[0,5,0] + x[1,5,0] + x[2,5,0] + x[3,5,0] + x[4,5,0]
   - x[5,0,0] - x[5,1,0] - x[5,2,0] - x[5,3,0] - x[5,4,0] - x[5,6,0]
   - x[5,7,0] - x[5,8,0] + x[6,5,0] + x[7,5,0] + x[8,5,0] = 0
 Leave_customer[5,1]: x[0,5,1] + x[1,5,1] + x[2,5,1] + x[3,5,1] + x[4,5,1]
   - x[5,0,1] - x[5,1,1] - x[5,2,1] - x[5,3,1] - x[5,4,1] - x[5,6,1]
   - x[5,7,1] - x[5,8,1] + x[6,5,1] + x[7,5,1] + x[8,5,1] = 0
 Leave_customer[6,0]: x[0,6,0] + x[1,6,0] + x[2,6,0] + x[3,6,0] + x[4,6,0]
   + x[5,6,0] - x[6,0,0] - x[6,1,0] - x[6,2,0] - x[6,3,0] - x[6,4,0]
   - x[6,5,0] - x[6,7,0] - x[6,8,0] + x[7,6,0] + x[8,6,0] = 0
 Leave_customer[6,1]: x[0,6,1] + x[1,6,1] + x[2,6,1] + x[3,6,1] + x[4,6,1]
   + x[5,6,1] - x[6,0,1] - x[6,1,1] - x[6,2,1] - x[6,3,1] - x[6,4,1]
   - x[6,5,1] - x[6,7,1] - x[6,8,1] + x[7,6,1] + x[8,6,1] = 0
 Leave_customer[7,0]: x[0,7,0] + x[1,7,0] + x[2,7,0] + x[3,7,0] + x[4,7,0]
   + x[5,7,0] + x[6,7,0] - x[7,0,0] - x[7,1,0] - x[7,2,0] - x[7,3,0]
   - x[7,4,0] - x[7,5,0] - x[7,6,0] - x[7,8,0] + x[8,7,0] = 0
 Leave_customer[7,1]: x[0,7,1] + x[1,7,1] + x[2,7,1] + x[3,7,1] + x[4,7,1]
   + x[5,7,1] + x[6,7,1] - x[7,0,1] - x[7,1,1] - x[7,2,1] - x[7,3,1]
   - x[7,4,1] - x[7,5,1] - x[7,6,1] - x[7,8,1] + x[8,7,1] = 0
 Leave_customer[8,0]: x[0,8,0] + x[1,8,0] + x[2,8,0] + x[3,8,0] + x[4,8,0]
   + x[5,8,0] + x[6,8,0] + x[7,8,0] - x[8,0,0] - x[8,1,0] - x[8,2,0]
   - x[8,3,0] - x[8,4,0] - x[8,5,0] - x[8,6,0] - x[8,7,0] = 0
 Leave_customer[8,1]: x[0,8,1] + x[1,8,1] + x[2,8,1] + x[3,8,1] + x[4,8,1]
   + x[5,8,1] + x[6,8,1] + x[7,8,1] - x[8,0,1] - x[8,1,1] - x[8,2,1]
   - x[8,3,1] - x[8,4,1] - x[8,5,1] - x[8,6,1] - x[8,7,1] = 0
 time_bound_on_pizzeria[1]: - tau[1] <= -600
 time_bound_on_pizzeria[2]: - tau[2] <= -1200
 time_bound_on_pizzeria[3]: - tau[3] <= -1800
 Time_window_pizzeria[1,0]: - 1e+06 x[0,1,0] - tau[1] <= -1.000164e+06
 Time_window_pizzeria[1,1]: - 1e+06 x[0,1,1] - tau[1] <= -1.000164e+06
 Time_window_pizzeria[2,0]: - 1e+06 x[0,2,0] - tau[2] <= -1.0002208e+06
 Time_window_pizzeria[2,1]: - 1e+06 x[0,2,1] - tau[2] <= -1.0002208e+06
 Time_window_pizzeria[3,0]: - 1e+06 x[0,3,0] - tau[3] <= -1.0002472e+06
 Time_window_pizzeria[3,1]: - 1e+06 x[0,3,1] - tau[3] <= -1.0002472e+06
 Capacity[0,1]: 2 x[1,4,0] + 2 x[1,5,0] + 2 x[1,6,0] + 2 x[1,7,0]
   + 2 x[1,8,0] + 2 x[4,5,0] + 2 x[4,6,0] + 2 x[4,7,0] + 2 x[4,8,0]
   + 2 x[5,4,0] + 2 x[5,6,0] + 2 x[5,7,0] + 2 x[5,8,0] + 2 x[6,4,0]
   + 2 x[6,5,0] + 2 x[6,7,0] + 2 x[6,8,0] + 2 x[7,4,0] + 2 x[7,5,0]
   + 2 x[7,6,0] + 2 x[7,8,0] + 2 x[8,4,0] + 2 x[8,5,0] + 2 x[8,6,0]
   + 2 x[8,7,0] <= 10
 Capacity[0,2]: 2 x[2,4,0] + 2 x[2,5,0] + 2 x[2,6,0] + 2 x[2,7,0]
   + 2 x[2,8,0] + 2 x[4,5,0] + 2 x[4,6,0] + 2 x[4,7,0] + 2 x[4,8,0]
   + 2 x[5,4,0] + 2 x[5,6,0] + 2 x[5,7,0] + 2 x[5,8,0] + 2 x[6,4,0]
   + 2 x[6,5,0] + 2 x[6,7,0] + 2 x[6,8,0] + 2 x[7,4,0] + 2 x[7,5,0]
   + 2 x[7,6,0] + 2 x[7,8,0] + 2 x[8,4,0] + 2 x[8,5,0] + 2 x[8,6,0]
   + 2 x[8,7,0] <= 10
 Capacity[0,3]: 2 x[3,4,0] + 2 x[3,5,0] + 2 x[3,6,0] + 2 x[3,7,0]
   + 2 x[3,8,0] + 2 x[4,5,0] + 2 x[4,6,0] + 2 x[4,7,0] + 2 x[4,8,0]
   + 2 x[5,4,0] + 2 x[5,6,0] + 2 x[5,7,0] + 2 x[5,8,0] + 2 x[6,4,0]
   + 2 x[6,5,0] + 2 x[6,7,0] + 2 x[6,8,0] + 2 x[7,4,0] + 2 x[7,5,0]
   + 2 x[7,6,0] + 2 x[7,8,0] + 2 x[8,4,0] + 2 x[8,5,0] + 2 x[8,6,0]
   + 2 x[8,7,0] <= 10
 Capacity[1,1]: 2 x[1,4,1] + 2 x[1,5,1] + 2 x[1,6,1] + 2 x[1,7,1]
   + 2 x[1,8,1] + 2 x[4,5,1] + 2 x[4,6,1] + 2 x[4,7,1] + 2 x[4,8,1]
   + 2 x[5,4,1] + 2 x[5,6,1] + 2 x[5,7,1] + 2 x[5,8,1] + 2 x[6,4,1]
   + 2 x[6,5,1] + 2 x[6,7,1] + 2 x[6,8,1] + 2 x[7,4,1] + 2 x[7,5,1]
   + 2 x[7,6,1] + 2 x[7,8,1] + 2 x[8,4,1] + 2 x[8,5,1] + 2 x[8,6,1]
   + 2 x[8,7,1] <= 10
 Capacity[1,2]: 2 x[2,4,1] + 2 x[2,5,1] + 2 x[2,6,1] + 2 x[2,7,1]
   + 2 x[2,8,1] + 2 x[4,5,1] + 2 x[4,6,1] + 2 x[4,7,1] + 2 x[4,8,1]
   + 2 x[5,4,1] + 2 x[5,6,1] + 2 x[5,7,1] + 2 x[5,8,1] + 2 x[6,4,1]
   + 2 x[6,5,1] + 2 x[6,7,1] + 2 x[6,8,1] + 2 x[7,4,1] + 2 x[7,5,1]
   + 2 x[7,6,1] + 2 x[7,8,1] + 2 x[8,4,1] + 2 x[8,5,1] + 2 x[8,6,1]
   + 2 x[8,7,1] <= 10
 Capacity[1,3]: 2 x[3,4,1] + 2 x[3,5,1] + 2 x[3,6,1] + 2 x[3,7,1]
   + 2 x[3,8,1] + 2 x[4,5,1] + 2 x[4,6,1] + 2 x[4,7,1] + 2 x[4,8,1]
   + 2 x[5,4,1] + 2 x[5,6,1] + 2 x[5,7,1] + 2 x[5,8,1] + 2 x[6,4,1]
   + 2 x[6,5,1] + 2 x[6,7,1] + 2 x[6,8,1] + 2 x[7,4,1] + 2 x[7,5,1]
   + 2 x[7,6,1] + 2 x[7,8,1] + 2 x[8,4,1] + 2 x[8,5,1] + 2 x[8,6,1]
   + 2 x[8,7,1] <= 10
Bounds
Binaries
 x[0,0,0] x[0,0,1] x[0,1,0] x[0,1,1] x[0,2,0] x[0,2,1] x[0,3,0] x[0,3,1]
 x[0,4,0] x[0,4,1] x[0,5,0] x[0,5,1] x[0,6,0] x[0,6,1] x[0,7,0] x[0,7,1]
 x[0,8,0] x[0,8,1] x[1,0,0] x[1,0,1] x[1,1,0] x[1,1,1] x[1,2,0] x[1,2,1]
 x[1,3,0] x[1,3,1] x[1,4,0] x[1,4,1] x[1,5,0] x[1,5,1] x[1,6,0] x[1,6,1]
 x[1,7,0] x[1,7,1] x[1,8,0] x[1,8,1] x[2,0,0] x[2,0,1] x[2,1,0] x[2,1,1]
 x[2,2,0] x[2,2,1] x[2,3,0] x[2,3,1] x[2,4,0] x[2,4,1] x[2,5,0] x[2,5,1]
 x[2,6,0] x[2,6,1] x[2,7,0] x[2,7,1] x[2,8,0] x[2,8,1] x[3,0,0] x[3,0,1]
 x[3,1,0] x[3,1,1] x[3,2,0] x[3,2,1] x[3,3,0] x[3,3,1] x[3,4,0] x[3,4,1]
 x[3,5,0] x[3,5,1] x[3,6,0] x[3,6,1] x[3,7,0] x[3,7,1] x[3,8,0] x[3,8,1]
 x[4,0,0] x[4,0,1] x[4,1,0] x[4,1,1] x[4,2,0] x[4,2,1] x[4,3,0] x[4,3,1]
 x[4,4,0] x[4,4,1] x[4,5,0] x[4,5,1] x[4,6,0] x[4,6,1] x[4,7,0] x[4,7,1]
 x[4,8,0] x[4,8,1] x[5,0,0] x[5,0,1] x[5,1,0] x[5,1,1] x[5,2,0] x[5,2,1]
 x[5,3,0] x[5,3,1] x[5,4,0] x[5,4,1] x[5,5,0] x[5,5,1] x[5,6,0] x[5,6,1]
 x[5,7,0] x[5,7,1] x[5,8,0] x[5,8,1] x[6,0,0] x[6,0,1] x[6,1,0] x[6,1,1]
 x[6,2,0] x[6,2,1] x[6,3,0] x[6,3,1] x[6,4,0] x[6,4,1] x[6,5,0] x[6,5,1]
 x[6,6,0] x[6,6,1] x[6,7,0] x[6,7,1] x[6,8,0] x[6,8,1] x[7,0,0] x[7,0,1]
 x[7,1,0] x[7,1,1] x[7,2,0] x[7,2,1] x[7,3,0] x[7,3,1] x[7,4,0] x[7,4,1]
 x[7,5,0] x[7,5,1] x[7,6,0] x[7,6,1] x[7,7,0] x[7,7,1] x[7,8,0] x[7,8,1]
 x[8,0,0] x[8,0,1] x[8,1,0] x[8,1,1] x[8,2,0] x[8,2,1] x[8,3,0] x[8,3,1]
 x[8,4,0] x[8,4,1] x[8,5,0] x[8,5,1] x[8,6,0] x[8,6,1] x[8,7,0] x[8,7,1]
 x[8,8,0] x[8,8,1] x_k[0] x_k[1]
Generals
 tau[1] tau[2] tau[3]
End
